
Gurobi 9.5.0 (mac64[x86]) logging started Mon  3 Oct 10:49:43 2022

Set parameter LogFile to value "/Users/nikitabelyak/Dropbox (Aalto)/TSEP/Nordic_case_study/2022 data/optimisation_results/03_Oct_2022_10_49_43.log"
Set parameter Threads to value 6
